(declare-const a_565 Int)
(declare-const a_564 Int)
(declare-const a_563 Int)
(assert (<= 10 (+ (ite (>= a_564 (+ (+ -7 (+ (+ -9 a_564) 1)) 1)) a_564 (+ (+ -7 (+ (+ -9 a_564) 1)) 1)) 1)))
(assert (>= 20 (- (- (+ (ite (>= a_564 (+ (+ -7 (+ (+ -9 a_564) 1)) 1)) a_564 (+ (+ -7 (+ (+ -9 a_564) 1)) 1)) 1) (ite (>= (- a_564 a_565) (- (+ (+ -7 (+ (+ -9 a_564) 1)) 1) (- (- (+ (+ -7 (+ (+ -9 a_564) 1)) 1) (ite (>= (- (+ (+ -7 (+ (+ -9 a_564) 1)) 1) 53) (- (+ (+ -7 (+ (+ -9 a_564) 1)) 1) (- (- (+ (+ -9 a_564) 1) (ite (>= (- (+ (+ -9 a_564) 1) 53) (- (+ (+ -9 a_564) 1) a_565)) (- (+ (+ -9 a_564) 1) 53) (- (+ (+ -9 a_564) 1) a_565))) (ite (= 53 a_565) 1 0)))) (- (+ (+ -7 (+ (+ -9 a_564) 1)) 1) 53) (- (+ (+ -7 (+ (+ -9 a_564) 1)) 1) (- (- (+ (+ -9 a_564) 1) (ite (>= (- (+ (+ -9 a_564) 1) 53) (- (+ (+ -9 a_564) 1) a_565)) (- (+ (+ -9 a_564) 1) 53) (- (+ (+ -9 a_564) 1) a_565))) (ite (= 53 a_565) 1 0))))) (ite (= 53 (- (- (+ (+ -9 a_564) 1) (ite (>= (- (+ (+ -9 a_564) 1) 53) (- (+ (+ -9 a_564) 1) a_565)) (- (+ (+ -9 a_564) 1) 53) (- (+ (+ -9 a_564) 1) a_565))) (ite (= 53 a_565) 1 0))) 1 0)))) (- a_564 a_565) (- (+ (+ -7 (+ (+ -9 a_564) 1)) 1) (- (- (+ (+ -7 (+ (+ -9 a_564) 1)) 1) (ite (>= (- (+ (+ -7 (+ (+ -9 a_564) 1)) 1) 53) (- (+ (+ -7 (+ (+ -9 a_564) 1)) 1) (- (- (+ (+ -9 a_564) 1) (ite (>= (- (+ (+ -9 a_564) 1) 53) (- (+ (+ -9 a_564) 1) a_565)) (- (+ (+ -9 a_564) 1) 53) (- (+ (+ -9 a_564) 1) a_565))) (ite (= 53 a_565) 1 0)))) (- (+ (+ -7 (+ (+ -9 a_564) 1)) 1) 53) (- (+ (+ -7 (+ (+ -9 a_564) 1)) 1) (- (- (+ (+ -9 a_564) 1) (ite (>= (- (+ (+ -9 a_564) 1) 53) (- (+ (+ -9 a_564) 1) a_565)) (- (+ (+ -9 a_564) 1) 53) (- (+ (+ -9 a_564) 1) a_565))) (ite (= 53 a_565) 1 0))))) (ite (= 53 (- (- (+ (+ -9 a_564) 1) (ite (>= (- (+ (+ -9 a_564) 1) 53) (- (+ (+ -9 a_564) 1) a_565)) (- (+ (+ -9 a_564) 1) 53) (- (+ (+ -9 a_564) 1) a_565))) (ite (= 53 a_565) 1 0))) 1 0))))) (ite (= (- a_564 a_565) (- (+ (+ -7 (+ (+ -9 a_564) 1)) 1) (- (- (+ (+ -7 (+ (+ -9 a_564) 1)) 1) (ite (>= (- (+ (+ -7 (+ (+ -9 a_564) 1)) 1) 53) (- (+ (+ -7 (+ (+ -9 a_564) 1)) 1) (- (- (+ (+ -9 a_564) 1) (ite (>= (- (+ (+ -9 a_564) 1) 53) (- (+ (+ -9 a_564) 1) a_565)) (- (+ (+ -9 a_564) 1) 53) (- (+ (+ -9 a_564) 1) a_565))) (ite (= 53 a_565) 1 0)))) (- (+ (+ -7 (+ (+ -9 a_564) 1)) 1) 53) (- (+ (+ -7 (+ (+ -9 a_564) 1)) 1) (- (- (+ (+ -9 a_564) 1) (ite (>= (- (+ (+ -9 a_564) 1) 53) (- (+ (+ -9 a_564) 1) a_565)) (- (+ (+ -9 a_564) 1) 53) (- (+ (+ -9 a_564) 1) a_565))) (ite (= 53 a_565) 1 0))))) (ite (= 53 (- (- (+ (+ -9 a_564) 1) (ite (>= (- (+ (+ -9 a_564) 1) 53) (- (+ (+ -9 a_564) 1) a_565)) (- (+ (+ -9 a_564) 1) 53) (- (+ (+ -9 a_564) 1) a_565))) (ite (= 53 a_565) 1 0))) 1 0)))) 1 0))))
(check-sat)
(get-model)
